Route #1: 1 16 6 20 5 7 21 17 9 13 2 10 1 
Route #2: 1 1 4 11 15 12 3 19 18 8 14 1 

Cost 223.194
Time 0.1050


 * Another infos *

 Iterations: 22 Time: 0.1050 sec - 0.0018 min - 0.0000 horas
0.0000 h 0.0018 min
Problem dimension: 22
